--
&inputph
  tr2_ph   =  1.0d-14
  prefix   = 'si'
  outdir   = './'
  fildyn   = 'si.dyn'
  ldisp=.true.
  epsil=.true.
  nq1=6, nq2=6, nq3=6
 /
0.0 0.0 0.0
