 &control
    calculation='scf',
    prefix='si',
    pseudo_dir = '../pp/',
    outdir='./',
 /
 &system
    ibrav=  2, 
    celldm(1) =10.20, 
    nat=  2, ntyp= 1,
    ecutwfc =50.0,
 /
 &electrons
    conv_thr =  1.0d-12
 /
ATOMIC_SPECIES
 Si 28.086   Si.pz-vbc.UPF 
ATOMIC_POSITIONS crystal
Si 0.000000000   0.000000000   0.000000000
Si 0.25 0.25 0.25
K_POINTS AUTOMATIC
16 16 16 1 1 1

